32      4       
10      10      10      10      
0       0       0       0       0       7       2       8       11      12      29      30      31      
6       0       1       1       1       3       3       27      28      
6       2       0       5       1       5       4       18      22      23      24      
5       2       2       3       0       4       5       19      20      21      
10      3       1       0       3       1       6       
6       2       0       2       1       3       7       14      17      
2       3       7       6       0       3       9       15      16      
5       3       2       0       5       2       14      18      
2       6       4       0       2       1       10      
10      0       6       8       5       1       13      
9       5       0       3       5       1       26      
8       0       2       6       3       1       25      
3       2       6       3       0       1       32      
3       0       3       3       3       1       32      
6       0       4       3       6       1       32      
9       5       0       2       4       1       32      
6       3       0       4       5       1       32      
9       1       0       4       5       1       32      
5       4       0       7       5       1       32      
4       6       6       0       5       1       32      
5       4       0       3       3       1       32      
3       4       0       6       1       1       32      
5       6       4       0       8       1       32      
1       10      4       0       5       1       32      
4       4       4       0       5       1       32      
6       0       7       7       4       1       32      
10      6       0       1       6       1       32      
6       4       5       3       0       1       32      
4       3       2       4       0       1       32      
1       6       0       4       5       1       32      
7       2       6       4       0       1       32      
0       0       0       0       0       0       
